c @top --> 18
c p0 --> 17
c p9 --> 16
c p1 --> 15
c p5 --> 14
c p10@v0 --> 1
c p10@v1 --> 2
c p6 --> 13
c p10@v2 --> 3
c p10@v3 --> 4
c p10@v4 --> 5
c p10@v5 --> 6
c p3 --> 11
c p8 --> 8
c p10@v6 --> 7
c p7 --> 9
c p4 --> 10
c p2 --> 12
p cnf 18 151
14 -12 -15 -4 -17 -10 0
-13 -12 -14 -1 -10 0
-12 -15 -6 -17 10 0
14 17 -1 -10 0
-13 -6 12 -14 -17 15 -10 0
-15 12 10 -17 -3 9 0
14 -12 -15 -6 -17 -10 0
-13 -7 0
17 -11 9 0
-13 -12 -7 -14 -10 0
-7 12 -14 -17 15 13 -10 0
-6 -17 10 15 0
-13 -15 12 -9 -14 -17 -2 -10 0
-12 -7 -14 13 -10 0
14 -15 -7 12 -17 9 -10 0
-13 12 -14 17 -1 -10 0
-12 -15 -4 -17 10 0
-15 -6 12 -14 -17 13 -10 0
-13 12 -14 -17 -2 15 -10 0
-15 12 10 -17 -5 9 0
8 17 -11 0
-15 12 10 -17 -2 9 0
14 -7 -17 15 -10 0
-17 10 -5 15 0
14 -7 17 -10 0
-6 12 -14 -17 15 13 -10 0
14 -15 12 -17 -5 9 -10 0
-13 -15 12 -9 -14 -17 -3 -10 0
8 9 0
-15 -4 12 10 -17 9 0
-13 12 -14 17 -2 -10 0
14 -6 17 -10 0
-13 -15 12 -14 -17 -2 9 -10 0
-15 12 -14 -17 -3 13 -10 0
-4 12 -14 -17 15 13 -10 0
-13 -15 12 -14 -17 -3 9 -10 0
-15 12 10 -17 -1 9 0
-13 -15 12 -14 -17 -5 9 -10 0
14 -4 -17 15 -10 0
-12 -14 -2 13 -10 0
14 -12 -15 -17 -1 -10 0
14 -4 17 -10 0
14 -6 -17 15 -10 0
-13 -7 12 -14 17 -10 0
12 -14 -17 -3 15 13 -10 0
14 -15 12 -17 -3 9 -10 0
14 -15 12 -9 -17 -2 -10 0
-15 12 -14 -17 13 -1 -10 0
-12 -15 -17 10 -5 0
-12 -15 -17 10 -3 0
12 -14 17 -2 13 -10 0
-12 -15 -17 10 -1 0
-12 -6 -14 13 -10 0
-17 10 -3 15 0
-15 -4 12 -14 -17 13 -10 0
-13 -15 12 -9 -14 -17 -1 -10 0
-17 10 15 -1 0
-15 -7 12 -9 -17 10 0
17 10 -1 0
14 -7 0
-13 -12 -14 -2 -10 0
17 10 -5 0
8 15 -11 0
-4 -17 10 15 0
14 -15 -6 12 -9 -17 -10 0
17 10 -3 0
-13 -15 12 -14 -17 -1 9 -10 0
-13 -15 -7 12 -14 -17 9 -10 0
-15 12 -14 -17 -5 13 -10 0
-7 12 -14 17 13 -10 0
-12 -4 -14 13 -10 0
-13 -15 -6 12 -9 -14 -17 -10 0
-4 17 10 0
14 -15 12 -9 -17 -3 -10 0
-13 12 -14 -17 15 -1 -10 0
14 -15 12 -9 -17 -1 -10 0
-15 12 -9 -17 10 -3 0
12 -14 17 -5 13 -10 0
-7 15 0
14 -12 -15 -7 -17 -10 0
-13 -12 -6 -14 -10 0
-15 -6 12 -9 -17 10 0
-13 -12 -14 -5 -10 0
-6 17 10 0
-13 -12 -4 -14 -10 0
-12 -15 -7 -17 10 0
14 17 -5 -10 0
-7 17 0
-6 12 -14 17 13 -10 0
-7 17 10 0
14 -12 -15 -17 -3 -10 0
-4 12 -14 17 13 -10 0
14 -15 12 -17 -1 9 -10 0
12 -11 9 0
10 -11 0
14 -15 -4 12 -9 -17 -10 0
-12 -7 0
-7 10 0
-13 12 -14 -17 -5 15 -10 0
14 -11 0
-13 -6 12 -14 17 -10 0
8 16 0
-12 -14 -5 13 -10 0
14 17 -3 -10 0
14 -12 -15 -17 -5 -10 0
14 -15 -7 12 -9 -17 -10 0
-13 12 -14 17 -5 -10 0
-12 -14 -3 13 -10 0
-15 12 -14 -17 -2 13 -10 0
-13 -4 12 -14 17 -10 0
-15 -7 12 10 -17 9 0
14 -15 12 -17 -2 9 -10 0
14 -15 -4 12 -17 9 -10 0
-15 -4 12 -9 -17 10 0
12 -14 -17 -5 15 13 -10 0
-7 -17 10 15 0
-13 -15 12 -9 -14 -17 -5 -10 0
-13 -15 -4 12 -14 -17 9 -10 0
-13 -4 12 -14 -17 15 -10 0
12 -14 17 -3 13 -10 0
-13 -7 12 -14 -17 15 -10 0
14 -17 -3 15 -10 0
14 -17 -5 15 -10 0
14 -17 15 -1 -10 0
12 -14 -17 -2 15 13 -10 0
-15 12 -9 -17 10 -1 0
-15 12 -9 -17 10 -2 0
-13 -15 -7 12 -9 -14 -17 -10 0
1 2 3 4 5 6 7 0
-1 -2 0
-1 -3 0
-1 -4 0
-1 -5 0
-1 -6 0
-1 -7 0
-2 -3 0
-2 -4 0
-2 -5 0
-2 -6 0
-2 -7 0
-3 -4 0
-3 -5 0
-3 -6 0
-3 -7 0
-4 -5 0
-4 -6 0
-4 -7 0
-5 -6 0
-5 -7 0
-6 -7 0
18 -18 0
